# Objective value = 6068.46
I_0_0 1547
I_0_1 1.9100000000000002e+03
I_0_2 1.6720000000000002e+03
I_0_3 2.3530000000000005e+03
I_1_0 34
I_1_1 1.4155343563970746e-15
I_1_2 34
I_1_3 0
I_2_0 52
I_2_1 52
I_2_2 52
I_2_3 0
I_3_0 58
I_3_1 0
I_3_2 5.7999999999999993e+01
I_3_3 0
I_4_0 88
I_4_1 4.4000000000000028e+01
I_4_2 8.8000000000000014e+01
I_4_3 4.4000000000000014e+01
I_5_0 71
I_5_1 0
I_5_2 71
I_5_3 0
I_6_0 13
I_6_1 0
I_6_2 13
I_6_3 0
I_7_0 56
I_7_1 56
I_7_2 28
I_7_3 -2.71145638401796e-13
I_8_0 86
I_8_1 86
I_8_2 8.6000000000000014e+01
I_8_3 0
I_9_0 72
I_9_1 0
I_9_2 72
I_9_3 0
I_10_0 106
I_10_1 106
I_10_2 5.3000000000000014e+01
I_10_3 9.7699626167013776e-15
I_11_0 60
I_11_1 60
I_11_2 3.0000000000000004e+01
I_11_3 8.3266726846886741e-17
I_12_0 28
I_12_1 28
I_12_2 14
I_12_3 0
I_13_0 55
I_13_1 55
I_13_2 5.5000000000000007e+01
I_13_3 0
I_14_0 32
I_14_1 16
I_14_2 3.2000000000000021e+01
I_14_3 1.6000000000000021e+01
I_15_0 55
I_15_1 0
I_15_2 55
I_15_3 0
q_1_0_0 1.4155343563970746e-15
q_1_0_1 6.8000000000000043e+01
q_1_0_2 0
q_1_1_0 0
q_1_1_1 -6.1062266354383610e-15
q_1_1_2 0
q_1_2_0 0
q_1_2_1 -4.4408920985006262e-16
q_1_2_2 0
q_2_0_0 52
q_2_0_1 0
q_2_0_2 0
q_2_1_0 0
q_2_1_1 52
q_2_1_2 0
q_2_2_0 0
q_2_2_1 -1.7763568394002505e-15
q_2_2_2 0
q_3_0_0 0
q_3_0_1 116
q_3_0_2 0
q_3_1_0 0
q_3_1_1 0
q_3_1_2 0
q_3_2_0 0
q_3_2_1 0
q_3_2_2 0
q_4_0_0 0
q_4_0_1 88
q_4_0_2 0
q_4_1_0 0
q_4_1_1 2.2204460492503131e-16
q_4_1_2 0
q_4_2_0 0
q_4_2_1 0
q_4_2_2 0
q_5_0_0 0
q_5_0_1 0
q_5_0_2 0
q_5_1_0 0
q_5_1_1 142
q_5_1_2 0
q_5_2_0 0
q_5_2_1 0
q_5_2_2 0
q_6_0_0 0
q_6_0_1 26
q_6_0_2 0
q_6_1_0 0
q_6_1_1 0
q_6_1_2 0
q_6_2_0 0
q_6_2_1 0
q_6_2_2 0
q_7_0_0 28
q_7_0_1 -8.8817841970012523e-16
q_7_0_2 0
q_7_1_0 0
q_7_1_1 -5.5511151231257827e-17
q_7_1_2 0
q_7_2_0 0
q_7_2_1 0
q_7_2_2 -3.5177416535248085e-13
q_8_0_0 86
q_8_0_1 0
q_8_0_2 0
q_8_1_0 0
q_8_1_1 8.6000000000000014e+01
q_8_1_2 0
q_8_2_0 0
q_8_2_1 0
q_8_2_2 0
q_9_0_0 0
q_9_0_1 -1.7763568394002505e-15
q_9_0_2 0
q_9_1_0 0
q_9_1_1 1.2434497875801753e-14
q_9_1_2 0
q_9_2_0 0
q_9_2_1 1.4400000000000003e+02
q_9_2_2 0
q_10_0_0 53
q_10_0_1 3.5527136788005009e-15
q_10_0_2 0
q_10_1_0 0
q_10_1_1 0
q_10_1_2 0
q_10_2_0 0
q_10_2_1 3.5527136788005009e-15
q_10_2_2 0
q_11_0_0 30
q_11_0_1 0
q_11_0_2 0
q_11_1_0 0
q_11_1_1 8.3266726846886741e-17
q_11_1_2 0
q_11_2_0 0
q_11_2_1 0
q_11_2_2 0
q_12_0_0 14
q_12_0_1 0
q_12_0_2 0
q_12_1_0 0
q_12_1_1 0
q_12_1_2 0
q_12_2_0 0
q_12_2_1 0
q_12_2_2 0
q_13_0_0 55
q_13_0_1 0
q_13_0_2 0
q_13_1_0 0
q_13_1_1 55
q_13_1_2 0
q_13_2_0 0
q_13_2_1 0
q_13_2_2 0
q_14_0_0 7.2164496600635175e-16
q_14_0_1 3.2000000000000021e+01
q_14_0_2 0
q_14_1_0 0
q_14_1_1 0
q_14_1_2 0
q_14_2_0 0
q_14_2_1 0
q_14_2_2 -2.0668072851306928e-17
q_15_0_0 0
q_15_0_1 1.7763568394002505e-15
q_15_0_2 0
q_15_1_0 0
q_15_1_1 -4.2188474935755949e-15
q_15_1_2 0
q_15_2_0 0
q_15_2_1 110
q_15_2_2 0
y_0_0_0 1
y_0_0_1 1
y_0_0_2 0
y_0_1_0 -4.3368086899420177e-19
y_0_1_1 1
y_0_1_2 0
y_0_2_0 0
y_0_2_1 1
y_0_2_2 0
y_1_0_0 4.1633363423443370e-17
y_1_0_1 1.0000000000000002e+00
y_1_0_2 0
y_1_1_0 0
y_1_1_1 -8.8470897274817162e-17
y_1_1_2 0
y_1_2_0 0
y_1_2_1 0
y_1_2_2 0
y_2_0_0 1
y_2_0_1 4.3368086899420177e-17
y_2_0_2 0
y_2_1_0 0
y_2_1_1 1
y_2_1_2 0
y_2_2_0 0
y_2_2_1 0
y_2_2_2 0
y_3_0_0 0
y_3_0_1 1
y_3_0_2 0
y_3_1_0 0
y_3_1_1 0
y_3_1_2 0
y_3_2_0 0
y_3_2_1 0
y_3_2_2 0
y_4_0_0 0
y_4_0_1 1
y_4_0_2 0
y_4_1_0 0
y_4_1_1 0
y_4_1_2 0
y_4_2_0 0
y_4_2_1 0
y_4_2_2 0
y_5_0_0 0
y_5_0_1 0
y_5_0_2 0
y_5_1_0 0
y_5_1_1 1
y_5_1_2 0
y_5_2_0 0
y_5_2_1 0
y_5_2_2 0
y_6_0_0 0
y_6_0_1 1
y_6_0_2 0
y_6_1_0 0
y_6_1_1 0
y_6_1_2 0
y_6_2_0 0
y_6_2_1 0
y_6_2_2 0
y_7_0_0 1
y_7_0_1 -2.7755575615628914e-17
y_7_0_2 0
y_7_1_0 0
y_7_1_1 -2.6020852139652106e-18
y_7_1_2 0
y_7_2_0 0
y_7_2_1 0
y_7_2_2 9.5409791178724390e-18
y_8_0_0 1
y_8_0_1 0
y_8_0_2 0
y_8_1_0 0
y_8_1_1 1
y_8_1_2 0
y_8_2_0 0
y_8_2_1 0
y_8_2_2 0
y_9_0_0 0
y_9_0_1 -1.0408340855860843e-16
y_9_0_2 0
y_9_1_0 0
y_9_1_1 9.8879238130678e-17
y_9_1_2 0
y_9_2_0 0
y_9_2_1 1
y_9_2_2 0
y_10_0_0 1
y_10_0_1 4.1633363423443370e-17
y_10_0_2 0
y_10_1_0 0
y_10_1_1 0
y_10_1_2 0
y_10_2_0 0
y_10_2_1 -9.71445146547012e-17
y_10_2_2 0
y_11_0_0 1
y_11_0_1 0
y_11_0_2 0
y_11_1_0 0
y_11_1_1 8.6736173798840355e-19
y_11_1_2 0
y_11_2_0 0
y_11_2_1 0
y_11_2_2 0
y_12_0_0 1
y_12_0_1 0
y_12_0_2 0
y_12_1_0 0
y_12_1_1 0
y_12_1_2 0
y_12_2_0 0
y_12_2_1 0
y_12_2_2 0
y_13_0_0 1
y_13_0_1 0
y_13_0_2 0
y_13_1_0 0
y_13_1_1 1
y_13_1_2 0
y_13_2_0 0
y_13_2_1 0
y_13_2_2 0
y_14_0_0 4.5102810375396984e-17
y_14_0_1 1
y_14_0_2 0
y_14_1_0 0
y_14_1_1 0
y_14_1_2 0
y_14_2_0 0
y_14_2_1 0
y_14_2_2 0
y_15_0_0 0
y_15_0_1 1.3877787807814457e-17
y_15_0_2 0
y_15_1_0 0
y_15_1_1 -4.5102810375396984e-17
y_15_1_2 0
y_15_2_0 0
y_15_2_1 1
y_15_2_2 0
x_0_1_0_0 0
x_0_1_0_1 1.0000000000000002e+00
x_0_1_0_2 0
x_0_1_1_0 0
x_0_1_1_1 -2.6020852139652106e-17
x_0_1_1_2 0
x_0_1_2_0 0
x_0_1_2_1 -1.3877787807814457e-17
x_0_1_2_2 0
x_0_2_0_0 1
x_0_2_0_1 0
x_0_2_0_2 0
x_0_2_1_0 0
x_0_2_1_1 0
x_0_2_1_2 0
x_0_2_2_0 0
x_0_2_2_1 0
x_0_2_2_2 0
x_0_3_0_0 0
x_0_3_0_1 0
x_0_3_0_2 0
x_0_3_1_0 0
x_0_3_1_1 0
x_0_3_1_2 0
x_0_3_2_0 0
x_0_3_2_1 0
x_0_3_2_2 0
x_0_4_0_0 0
x_0_4_0_1 0
x_0_4_0_2 0
x_0_4_1_0 0
x_0_4_1_1 0
x_0_4_1_2 0
x_0_4_2_0 0
x_0_4_2_1 0
x_0_4_2_2 0
x_0_5_0_0 0
x_0_5_0_1 0
x_0_5_0_2 0
x_0_5_1_0 0
x_0_5_1_1 1
x_0_5_1_2 0
x_0_5_2_0 0
x_0_5_2_1 0
x_0_5_2_2 0
x_0_6_0_0 0
x_0_6_0_1 0
x_0_6_0_2 0
x_0_6_1_0 0
x_0_6_1_1 0
x_0_6_1_2 0
x_0_6_2_0 0
x_0_6_2_1 0
x_0_6_2_2 0
x_0_7_0_0 4.1633363423443370e-17
x_0_7_0_1 0
x_0_7_0_2 0
x_0_7_1_0 0
x_0_7_1_1 0
x_0_7_1_2 0
x_0_7_2_0 0
x_0_7_2_1 0
x_0_7_2_2 9.5409791178724390e-18
x_0_8_0_0 0
x_0_8_0_1 -5.8980598183211441e-17
x_0_8_0_2 0
x_0_8_1_0 0
x_0_8_1_1 1
x_0_8_1_2 0
x_0_8_2_0 0
x_0_8_2_1 0
x_0_8_2_2 -9.5409791178724390e-18
x_0_9_0_0 0
x_0_9_0_1 -6.5919492087118670e-17
x_0_9_0_2 0
x_0_9_1_0 0
x_0_9_1_1 9.8879238130678e-17
x_0_9_1_2 0
x_0_9_2_0 0
x_0_9_2_1 1
x_0_9_2_2 0
x_0_10_0_0 1.0000000000000002e+00
x_0_10_0_1 9.71445146547012e-17
x_0_10_0_2 0
x_0_10_1_0 0
x_0_10_1_1 0
x_0_10_1_2 0
x_0_10_2_0 0
x_0_10_2_1 -1.9428902930940239e-16
x_0_10_2_2 0
x_0_11_0_0 0
x_0_11_0_1 0
x_0_11_0_2 0
x_0_11_1_0 0
x_0_11_1_1 0
x_0_11_1_2 0
x_0_11_2_0 0
x_0_11_2_1 0
x_0_11_2_2 0
x_0_12_0_0 0
x_0_12_0_1 0
x_0_12_0_2 0
x_0_12_1_0 0
x_0_12_1_1 0
x_0_12_1_2 0
x_0_12_2_0 0
x_0_12_2_1 0
x_0_12_2_2 0
x_0_13_0_0 -4.5102810375396984e-17
x_0_13_0_1 0
x_0_13_0_2 0
x_0_13_1_0 0
x_0_13_1_1 0
x_0_13_1_2 0
x_0_13_2_0 0
x_0_13_2_1 0
x_0_13_2_2 0
x_0_14_0_0 0
x_0_14_0_1 1
x_0_14_0_2 0
x_0_14_1_0 0
x_0_14_1_1 0
x_0_14_1_2 0
x_0_14_2_0 0
x_0_14_2_1 0
x_0_14_2_2 0
x_0_15_0_0 0
x_0_15_0_1 0
x_0_15_0_2 0
x_0_15_1_0 0
x_0_15_1_1 0
x_0_15_1_2 0
x_0_15_2_0 0
x_0_15_2_1 1
x_0_15_2_2 0
x_1_2_0_0 8.3266726846886741e-17
x_1_2_0_1 0
x_1_2_0_2 0
x_1_2_1_0 0
x_1_2_1_1 0
x_1_2_1_2 0
x_1_2_2_0 0
x_1_2_2_1 0
x_1_2_2_2 0
x_1_3_0_0 0
x_1_3_0_1 1.0000000000000002e+00
x_1_3_0_2 0
x_1_3_1_0 0
x_1_3_1_1 0
x_1_3_1_2 0
x_1_3_2_0 0
x_1_3_2_1 0
x_1_3_2_2 0
x_1_4_0_0 0
x_1_4_0_1 0
x_1_4_0_2 0
x_1_4_1_0 0
x_1_4_1_1 0
x_1_4_1_2 0
x_1_4_2_0 0
x_1_4_2_1 0
x_1_4_2_2 0
x_1_5_0_0 0
x_1_5_0_1 0
x_1_5_0_2 0
x_1_5_1_0 0
x_1_5_1_1 0
x_1_5_1_2 0
x_1_5_2_0 0
x_1_5_2_1 0
x_1_5_2_2 0
x_1_6_0_0 0
x_1_6_0_1 0
x_1_6_0_2 0
x_1_6_1_0 0
x_1_6_1_1 0
x_1_6_1_2 0
x_1_6_2_0 0
x_1_6_2_1 0
x_1_6_2_2 0
x_1_7_0_0 0
x_1_7_0_1 0
x_1_7_0_2 0
x_1_7_1_0 0
x_1_7_1_1 0
x_1_7_1_2 0
x_1_7_2_0 0
x_1_7_2_1 0
x_1_7_2_2 0
x_1_8_0_0 0
x_1_8_0_1 0
x_1_8_0_2 0
x_1_8_1_0 0
x_1_8_1_1 0
x_1_8_1_2 0
x_1_8_2_0 0
x_1_8_2_1 0
x_1_8_2_2 0
x_1_9_0_0 0
x_1_9_0_1 -6.2450045135165055e-17
x_1_9_0_2 0
x_1_9_1_0 0
x_1_9_1_1 0
x_1_9_1_2 0
x_1_9_2_0 0
x_1_9_2_1 0
x_1_9_2_2 0
x_1_10_0_0 0
x_1_10_0_1 0
x_1_10_0_2 0
x_1_10_1_0 0
x_1_10_1_1 0
x_1_10_1_2 0
x_1_10_2_0 0
x_1_10_2_1 0
x_1_10_2_2 0
x_1_11_0_0 0
x_1_11_0_1 0
x_1_11_0_2 0
x_1_11_1_0 0
x_1_11_1_1 0
x_1_11_1_2 0
x_1_11_2_0 0
x_1_11_2_1 0
x_1_11_2_2 0
x_1_12_0_0 0
x_1_12_0_1 0
x_1_12_0_2 0
x_1_12_1_0 0
x_1_12_1_1 0
x_1_12_1_2 0
x_1_12_2_0 0
x_1_12_2_1 0
x_1_12_2_2 0
x_1_13_0_0 0
x_1_13_0_1 0
x_1_13_0_2 0
x_1_13_1_0 0
x_1_13_1_1 0
x_1_13_1_2 0
x_1_13_2_0 0
x_1_13_2_1 0
x_1_13_2_2 0
x_1_14_0_0 0
x_1_14_0_1 -3.1225022567582528e-17
x_1_14_0_2 0
x_1_14_1_0 0
x_1_14_1_1 0
x_1_14_1_2 0
x_1_14_2_0 0
x_1_14_2_1 0
x_1_14_2_2 0
x_1_15_0_0 0
x_1_15_0_1 0
x_1_15_0_2 0
x_1_15_1_0 0
x_1_15_1_1 -1.4571677198205180e-16
x_1_15_1_2 0
x_1_15_2_0 0
x_1_15_2_1 6.9388939039072284e-18
x_1_15_2_2 0
x_2_3_0_0 -6.2450045135165055e-17
x_2_3_0_1 0
x_2_3_0_2 0
x_2_3_1_0 0
x_2_3_1_1 0
x_2_3_1_2 0
x_2_3_2_0 0
x_2_3_2_1 0
x_2_3_2_2 0
x_2_4_0_0 0
x_2_4_0_1 0
x_2_4_0_2 0
x_2_4_1_0 0
x_2_4_1_1 0
x_2_4_1_2 0
x_2_4_2_0 0
x_2_4_2_1 0
x_2_4_2_2 0
x_2_5_0_0 0
x_2_5_0_1 0
x_2_5_0_2 0
x_2_5_1_0 0
x_2_5_1_1 1
x_2_5_1_2 0
x_2_5_2_0 0
x_2_5_2_1 0
x_2_5_2_2 0
x_2_6_0_0 0
x_2_6_0_1 0
x_2_6_0_2 0
x_2_6_1_0 0
x_2_6_1_1 0
x_2_6_1_2 0
x_2_6_2_0 0
x_2_6_2_1 0
x_2_6_2_2 0
x_2_7_0_0 0
x_2_7_0_1 0
x_2_7_0_2 0
x_2_7_1_0 0
x_2_7_1_1 0
x_2_7_1_2 0
x_2_7_2_0 0
x_2_7_2_1 0
x_2_7_2_2 0
x_2_8_0_0 0
x_2_8_0_1 8.6736173798840355e-17
x_2_8_0_2 0
x_2_8_1_0 0
x_2_8_1_1 0
x_2_8_1_2 0
x_2_8_2_0 0
x_2_8_2_1 -1.3877787807814457e-17
x_2_8_2_2 0
x_2_9_0_0 0
x_2_9_0_1 0
x_2_9_0_2 0
x_2_9_1_0 0
x_2_9_1_1 0
x_2_9_1_2 0
x_2_9_2_0 0
x_2_9_2_1 0
x_2_9_2_2 0
x_2_10_0_0 0
x_2_10_0_1 0
x_2_10_0_2 0
x_2_10_1_0 0
x_2_10_1_1 0
x_2_10_1_2 0
x_2_10_2_0 0
x_2_10_2_1 0
x_2_10_2_2 0
x_2_11_0_0 1
x_2_11_0_1 0
x_2_11_0_2 0
x_2_11_1_0 0
x_2_11_1_1 0
x_2_11_1_2 0
x_2_11_2_0 0
x_2_11_2_1 0
x_2_11_2_2 0
x_2_12_0_0 0
x_2_12_0_1 0
x_2_12_0_2 0
x_2_12_1_0 0
x_2_12_1_1 -8.6736173798840355e-19
x_2_12_1_2 0
x_2_12_2_0 0
x_2_12_2_1 -1.3877787807814457e-17
x_2_12_2_2 0
x_2_13_0_0 0
x_2_13_0_1 0
x_2_13_0_2 0
x_2_13_1_0 0
x_2_13_1_1 1
x_2_13_1_2 0
x_2_13_2_0 0
x_2_13_2_1 0
x_2_13_2_2 0
x_2_14_0_0 2.7755575615628914e-17
x_2_14_0_1 0
x_2_14_0_2 0
x_2_14_1_0 0
x_2_14_1_1 0
x_2_14_1_2 0
x_2_14_2_0 0
x_2_14_2_1 0
x_2_14_2_2 0
x_2_15_0_0 0
x_2_15_0_1 0
x_2_15_0_2 0
x_2_15_1_0 0
x_2_15_1_1 0
x_2_15_1_2 0
x_2_15_2_0 0
x_2_15_2_1 0
x_2_15_2_2 0
x_3_4_0_0 0
x_3_4_0_1 0
x_3_4_0_2 0
x_3_4_1_0 0
x_3_4_1_1 -5.5511151231257827e-17
x_3_4_1_2 0
x_3_4_2_0 0
x_3_4_2_1 0
x_3_4_2_2 0
x_3_5_0_0 0
x_3_5_0_1 0
x_3_5_0_2 0
x_3_5_1_0 0
x_3_5_1_1 0
x_3_5_1_2 0
x_3_5_2_0 0
x_3_5_2_1 0
x_3_5_2_2 0
x_3_6_0_0 0
x_3_6_0_1 1
x_3_6_0_2 0
x_3_6_1_0 0
x_3_6_1_1 0
x_3_6_1_2 0
x_3_6_2_0 0
x_3_6_2_1 0
x_3_6_2_2 0
x_3_7_0_0 0
x_3_7_0_1 0
x_3_7_0_2 0
x_3_7_1_0 0
x_3_7_1_1 0
x_3_7_1_2 0
x_3_7_2_0 0
x_3_7_2_1 0
x_3_7_2_2 0
x_3_8_0_0 0
x_3_8_0_1 0
x_3_8_0_2 0
x_3_8_1_0 0
x_3_8_1_1 0
x_3_8_1_2 0
x_3_8_2_0 0
x_3_8_2_1 0
x_3_8_2_2 0
x_3_9_0_0 0
x_3_9_0_1 0
x_3_9_0_2 0
x_3_9_1_0 0
x_3_9_1_1 0
x_3_9_1_2 0
x_3_9_2_0 0
x_3_9_2_1 0
x_3_9_2_2 0
x_3_10_0_0 0
x_3_10_0_1 0
x_3_10_0_2 0
x_3_10_1_0 0
x_3_10_1_1 0
x_3_10_1_2 0
x_3_10_2_0 0
x_3_10_2_1 0
x_3_10_2_2 0
x_3_11_0_0 0
x_3_11_0_1 0
x_3_11_0_2 0
x_3_11_1_0 0
x_3_11_1_1 0
x_3_11_1_2 0
x_3_11_2_0 0
x_3_11_2_1 0
x_3_11_2_2 0
x_3_12_0_0 0
x_3_12_0_1 0
x_3_12_0_2 0
x_3_12_1_0 0
x_3_12_1_1 0
x_3_12_1_2 0
x_3_12_2_0 0
x_3_12_2_1 0
x_3_12_2_2 0
x_3_13_0_0 0
x_3_13_0_1 0
x_3_13_0_2 0
x_3_13_1_0 0
x_3_13_1_1 0
x_3_13_1_2 0
x_3_13_2_0 0
x_3_13_2_1 0
x_3_13_2_2 0
x_3_14_0_0 6.2450045135165055e-17
x_3_14_0_1 0
x_3_14_0_2 0
x_3_14_1_0 0
x_3_14_1_1 0
x_3_14_1_2 0
x_3_14_2_0 0
x_3_14_2_1 0
x_3_14_2_2 0
x_3_15_0_0 0
x_3_15_0_1 -5.5511151231257827e-17
x_3_15_0_2 0
x_3_15_1_0 0
x_3_15_1_1 5.5511151231257827e-17
x_3_15_1_2 0
x_3_15_2_0 0
x_3_15_2_1 0
x_3_15_2_2 0
x_4_5_0_0 0
x_4_5_0_1 0
x_4_5_0_2 0
x_4_5_1_0 0
x_4_5_1_1 3.4694469519536142e-18
x_4_5_1_2 0
x_4_5_2_0 0
x_4_5_2_1 0
x_4_5_2_2 0
x_4_6_0_0 0
x_4_6_0_1 1
x_4_6_0_2 0
x_4_6_1_0 0
x_4_6_1_1 0
x_4_6_1_2 0
x_4_6_2_0 0
x_4_6_2_1 0
x_4_6_2_2 0
x_4_7_0_0 0
x_4_7_0_1 0
x_4_7_0_2 0
x_4_7_1_0 0
x_4_7_1_1 0
x_4_7_1_2 0
x_4_7_2_0 0
x_4_7_2_1 0
x_4_7_2_2 0
x_4_8_0_0 0
x_4_8_0_1 0
x_4_8_0_2 0
x_4_8_1_0 0
x_4_8_1_1 0
x_4_8_1_2 0
x_4_8_2_0 0
x_4_8_2_1 0
x_4_8_2_2 0
x_4_9_0_0 0
x_4_9_0_1 0
x_4_9_0_2 0
x_4_9_1_0 0
x_4_9_1_1 0
x_4_9_1_2 0
x_4_9_2_0 0
x_4_9_2_1 0
x_4_9_2_2 0
x_4_10_0_0 0
x_4_10_0_1 0
x_4_10_0_2 0
x_4_10_1_0 0
x_4_10_1_1 0
x_4_10_1_2 0
x_4_10_2_0 0
x_4_10_2_1 0
x_4_10_2_2 0
x_4_11_0_0 0
x_4_11_0_1 0
x_4_11_0_2 0
x_4_11_1_0 0
x_4_11_1_1 0
x_4_11_1_2 0
x_4_11_2_0 0
x_4_11_2_1 0
x_4_11_2_2 0
x_4_12_0_0 0
x_4_12_0_1 0
x_4_12_0_2 0
x_4_12_1_0 0
x_4_12_1_1 0
x_4_12_1_2 0
x_4_12_2_0 0
x_4_12_2_1 0
x_4_12_2_2 0
x_4_13_0_0 0
x_4_13_0_1 0
x_4_13_0_2 0
x_4_13_1_0 0
x_4_13_1_1 0
x_4_13_1_2 0
x_4_13_2_0 0
x_4_13_2_1 0
x_4_13_2_2 0
x_4_14_0_0 0
x_4_14_0_1 1
x_4_14_0_2 0
x_4_14_1_0 0
x_4_14_1_1 0
x_4_14_1_2 0
x_4_14_2_0 0
x_4_14_2_1 0
x_4_14_2_2 0
x_4_15_0_0 0
x_4_15_0_1 0
x_4_15_0_2 0
x_4_15_1_0 0
x_4_15_1_1 0
x_4_15_1_2 0
x_4_15_2_0 0
x_4_15_2_1 0
x_4_15_2_2 0
x_5_6_0_0 0
x_5_6_0_1 0
x_5_6_0_2 0
x_5_6_1_0 0
x_5_6_1_1 0
x_5_6_1_2 0
x_5_6_2_0 0
x_5_6_2_1 0
x_5_6_2_2 0
x_5_7_0_0 0
x_5_7_0_1 0
x_5_7_0_2 0
x_5_7_1_0 0
x_5_7_1_1 0
x_5_7_1_2 0
x_5_7_2_0 0
x_5_7_2_1 0
x_5_7_2_2 0
x_5_8_0_0 0
x_5_8_0_1 0
x_5_8_0_2 0
x_5_8_1_0 0
x_5_8_1_1 0
x_5_8_1_2 0
x_5_8_2_0 0
x_5_8_2_1 0
x_5_8_2_2 0
x_5_9_0_0 0
x_5_9_0_1 0
x_5_9_0_2 0
x_5_9_1_0 0
x_5_9_1_1 0
x_5_9_1_2 0
x_5_9_2_0 0
x_5_9_2_1 0
x_5_9_2_2 0
x_5_10_0_0 0
x_5_10_0_1 0
x_5_10_0_2 0
x_5_10_1_0 0
x_5_10_1_1 0
x_5_10_1_2 0
x_5_10_2_0 0
x_5_10_2_1 0
x_5_10_2_2 0
x_5_11_0_0 0
x_5_11_0_1 0
x_5_11_0_2 0
x_5_11_1_0 0
x_5_11_1_1 0
x_5_11_1_2 0
x_5_11_2_0 0
x_5_11_2_1 0
x_5_11_2_2 0
x_5_12_0_0 0
x_5_12_0_1 0
x_5_12_0_2 0
x_5_12_1_0 0
x_5_12_1_1 0
x_5_12_1_2 0
x_5_12_2_0 0
x_5_12_2_1 0
x_5_12_2_2 0
x_5_13_0_0 0
x_5_13_0_1 0
x_5_13_0_2 0
x_5_13_1_0 0
x_5_13_1_1 0
x_5_13_1_2 0
x_5_13_2_0 0
x_5_13_2_1 0
x_5_13_2_2 0
x_5_14_0_0 0
x_5_14_0_1 0
x_5_14_0_2 0
x_5_14_1_0 0
x_5_14_1_1 0
x_5_14_1_2 0
x_5_14_2_0 0
x_5_14_2_1 0
x_5_14_2_2 0
x_5_15_0_0 0
x_5_15_0_1 0
x_5_15_0_2 0
x_5_15_1_0 0
x_5_15_1_1 0
x_5_15_1_2 0
x_5_15_2_0 0
x_5_15_2_1 0
x_5_15_2_2 0
x_6_7_0_0 0
x_6_7_0_1 0
x_6_7_0_2 0
x_6_7_1_0 0
x_6_7_1_1 0
x_6_7_1_2 0
x_6_7_2_0 0
x_6_7_2_1 0
x_6_7_2_2 0
x_6_8_0_0 0
x_6_8_0_1 0
x_6_8_0_2 0
x_6_8_1_0 0
x_6_8_1_1 0
x_6_8_1_2 0
x_6_8_2_0 0
x_6_8_2_1 0
x_6_8_2_2 0
x_6_9_0_0 0
x_6_9_0_1 0
x_6_9_0_2 0
x_6_9_1_0 0
x_6_9_1_1 0
x_6_9_1_2 0
x_6_9_2_0 0
x_6_9_2_1 0
x_6_9_2_2 0
x_6_10_0_0 0
x_6_10_0_1 0
x_6_10_0_2 0
x_6_10_1_0 0
x_6_10_1_1 0
x_6_10_1_2 0
x_6_10_2_0 0
x_6_10_2_1 0
x_6_10_2_2 0
x_6_11_0_0 0
x_6_11_0_1 0
x_6_11_0_2 0
x_6_11_1_0 0
x_6_11_1_1 0
x_6_11_1_2 0
x_6_11_2_0 0
x_6_11_2_1 0
x_6_11_2_2 0
x_6_12_0_0 0
x_6_12_0_1 0
x_6_12_0_2 0
x_6_12_1_0 0
x_6_12_1_1 0
x_6_12_1_2 0
x_6_12_2_0 0
x_6_12_2_1 0
x_6_12_2_2 0
x_6_13_0_0 0
x_6_13_0_1 0
x_6_13_0_2 0
x_6_13_1_0 0
x_6_13_1_1 0
x_6_13_1_2 0
x_6_13_2_0 0
x_6_13_2_1 0
x_6_13_2_2 0
x_6_14_0_0 0
x_6_14_0_1 -3.1225022567582528e-17
x_6_14_0_2 0
x_6_14_1_0 0
x_6_14_1_1 0
x_6_14_1_2 0
x_6_14_2_0 0
x_6_14_2_1 0
x_6_14_2_2 0
x_6_15_0_0 0
x_6_15_0_1 0
x_6_15_0_2 0
x_6_15_1_0 0
x_6_15_1_1 0
x_6_15_1_2 0
x_6_15_2_0 0
x_6_15_2_1 0
x_6_15_2_2 0
x_7_8_0_0 1.0000000000000002e+00
x_7_8_0_1 -2.7755575615628914e-17
x_7_8_0_2 0
x_7_8_1_0 0
x_7_8_1_1 -1.1275702593849246e-17
x_7_8_1_2 0
x_7_8_2_0 0
x_7_8_2_1 0
x_7_8_2_2 9.5409791178724390e-18
x_7_9_0_0 0
x_7_9_0_1 0
x_7_9_0_2 0
x_7_9_1_0 0
x_7_9_1_1 0
x_7_9_1_2 0
x_7_9_2_0 0
x_7_9_2_1 0
x_7_9_2_2 0
x_7_10_0_0 9.9999999999999978e-01
x_7_10_0_1 -2.7755575615628914e-17
x_7_10_0_2 0
x_7_10_1_0 0
x_7_10_1_1 0
x_7_10_1_2 0
x_7_10_2_0 0
x_7_10_2_1 0
x_7_10_2_2 0
x_7_11_0_0 0
x_7_11_0_1 0
x_7_11_0_2 0
x_7_11_1_0 0
x_7_11_1_1 0
x_7_11_1_2 0
x_7_11_2_0 0
x_7_11_2_1 0
x_7_11_2_2 0
x_7_12_0_0 0
x_7_12_0_1 0
x_7_12_0_2 0
x_7_12_1_0 0
x_7_12_1_1 0
x_7_12_1_2 0
x_7_12_2_0 0
x_7_12_2_1 0
x_7_12_2_2 0
x_7_13_0_0 0
x_7_13_0_1 0
x_7_13_0_2 0
x_7_13_1_0 0
x_7_13_1_1 -1.7347234759768071e-18
x_7_13_1_2 0
x_7_13_2_0 0
x_7_13_2_1 0
x_7_13_2_2 0
x_7_14_0_0 0
x_7_14_0_1 0
x_7_14_0_2 0
x_7_14_1_0 0
x_7_14_1_1 0
x_7_14_1_2 0
x_7_14_2_0 0
x_7_14_2_1 0
x_7_14_2_2 0
x_7_15_0_0 0
x_7_15_0_1 0
x_7_15_0_2 0
x_7_15_1_0 0
x_7_15_1_1 0
x_7_15_1_2 0
x_7_15_2_0 0
x_7_15_2_1 0
x_7_15_2_2 0
x_8_9_0_0 0
x_8_9_0_1 0
x_8_9_0_2 0
x_8_9_1_0 0
x_8_9_1_1 0
x_8_9_1_2 0
x_8_9_2_0 0
x_8_9_2_1 0
x_8_9_2_2 0
x_8_10_0_0 0
x_8_10_0_1 0
x_8_10_0_2 0
x_8_10_1_0 0
x_8_10_1_1 0
x_8_10_1_2 0
x_8_10_2_0 0
x_8_10_2_1 0
x_8_10_2_2 0
x_8_11_0_0 0
x_8_11_0_1 0
x_8_11_0_2 0
x_8_11_1_0 0
x_8_11_1_1 0
x_8_11_1_2 0
x_8_11_2_0 0
x_8_11_2_1 0
x_8_11_2_2 0
x_8_12_0_0 9.9999999999999989e-01
x_8_12_0_1 0
x_8_12_0_2 0
x_8_12_1_0 0
x_8_12_1_1 1.7347234759768071e-18
x_8_12_1_2 0
x_8_12_2_0 0
x_8_12_2_1 1.3877787807814457e-17
x_8_12_2_2 0
x_8_13_0_0 0
x_8_13_0_1 0
x_8_13_0_2 0
x_8_13_1_0 0
x_8_13_1_1 1
x_8_13_1_2 0
x_8_13_2_0 0
x_8_13_2_1 0
x_8_13_2_2 0
x_8_14_0_0 0
x_8_14_0_1 0
x_8_14_0_2 0
x_8_14_1_0 0
x_8_14_1_1 0
x_8_14_1_2 0
x_8_14_2_0 0
x_8_14_2_1 0
x_8_14_2_2 0
x_8_15_0_0 0
x_8_15_0_1 0
x_8_15_0_2 0
x_8_15_1_0 0
x_8_15_1_1 0
x_8_15_1_2 0
x_8_15_2_0 0
x_8_15_2_1 0
x_8_15_2_2 0
x_9_10_0_0 0
x_9_10_0_1 0
x_9_10_0_2 0
x_9_10_1_0 0
x_9_10_1_1 0
x_9_10_1_2 0
x_9_10_2_0 0
x_9_10_2_1 0
x_9_10_2_2 0
x_9_11_0_0 0
x_9_11_0_1 0
x_9_11_0_2 0
x_9_11_1_0 0
x_9_11_1_1 0
x_9_11_1_2 0
x_9_11_2_0 0
x_9_11_2_1 0
x_9_11_2_2 0
x_9_12_0_0 0
x_9_12_0_1 0
x_9_12_0_2 0
x_9_12_1_0 0
x_9_12_1_1 0
x_9_12_1_2 0
x_9_12_2_0 0
x_9_12_2_1 0
x_9_12_2_2 0
x_9_13_0_0 0
x_9_13_0_1 0
x_9_13_0_2 0
x_9_13_1_0 0
x_9_13_1_1 0
x_9_13_1_2 0
x_9_13_2_0 0
x_9_13_2_1 0
x_9_13_2_2 0
x_9_14_0_0 0
x_9_14_0_1 0
x_9_14_0_2 0
x_9_14_1_0 0
x_9_14_1_1 0
x_9_14_1_2 0
x_9_14_2_0 0
x_9_14_2_1 0
x_9_14_2_2 0
x_9_15_0_0 0
x_9_15_0_1 -1.0408340855860843e-16
x_9_15_0_2 0
x_9_15_1_0 0
x_9_15_1_1 9.8879238130678e-17
x_9_15_1_2 0
x_9_15_2_0 0
x_9_15_2_1 1
x_9_15_2_2 0
x_10_11_0_0 0
x_10_11_0_1 0
x_10_11_0_2 0
x_10_11_1_0 0
x_10_11_1_1 0
x_10_11_1_2 0
x_10_11_2_0 0
x_10_11_2_1 0
x_10_11_2_2 0
x_10_12_0_0 0
x_10_12_0_1 0
x_10_12_0_2 0
x_10_12_1_0 0
x_10_12_1_1 0
x_10_12_1_2 0
x_10_12_2_0 0
x_10_12_2_1 0
x_10_12_2_2 0
x_10_13_0_0 0
x_10_13_0_1 0
x_10_13_0_2 0
x_10_13_1_0 0
x_10_13_1_1 0
x_10_13_1_2 0
x_10_13_2_0 0
x_10_13_2_1 0
x_10_13_2_2 0
x_10_14_0_0 0
x_10_14_0_1 0
x_10_14_0_2 0
x_10_14_1_0 0
x_10_14_1_1 0
x_10_14_1_2 0
x_10_14_2_0 0
x_10_14_2_1 0
x_10_14_2_2 0
x_10_15_0_0 0
x_10_15_0_1 0
x_10_15_0_2 0
x_10_15_1_0 0
x_10_15_1_1 0
x_10_15_1_2 0
x_10_15_2_0 0
x_10_15_2_1 0
x_10_15_2_2 0
x_11_12_0_0 0
x_11_12_0_1 0
x_11_12_0_2 0
x_11_12_1_0 0
x_11_12_1_1 0
x_11_12_1_2 0
x_11_12_2_0 0
x_11_12_2_1 0
x_11_12_2_2 0
x_11_13_0_0 1.0000000000000002e+00
x_11_13_0_1 0
x_11_13_0_2 0
x_11_13_1_0 0
x_11_13_1_1 1.7347234759768071e-18
x_11_13_1_2 0
x_11_13_2_0 0
x_11_13_2_1 0
x_11_13_2_2 0
x_11_14_0_0 0
x_11_14_0_1 0
x_11_14_0_2 0
x_11_14_1_0 0
x_11_14_1_1 0
x_11_14_1_2 0
x_11_14_2_0 0
x_11_14_2_1 0
x_11_14_2_2 0
x_11_15_0_0 0
x_11_15_0_1 0
x_11_15_0_2 0
x_11_15_1_0 0
x_11_15_1_1 0
x_11_15_1_2 0
x_11_15_2_0 0
x_11_15_2_1 0
x_11_15_2_2 0
x_12_13_0_0 1
x_12_13_0_1 0
x_12_13_0_2 0
x_12_13_1_0 0
x_12_13_1_1 -8.6736173798840355e-19
x_12_13_1_2 0
x_12_13_2_0 0
x_12_13_2_1 0
x_12_13_2_2 0
x_12_14_0_0 0
x_12_14_0_1 0
x_12_14_0_2 0
x_12_14_1_0 0
x_12_14_1_1 0
x_12_14_1_2 0
x_12_14_2_0 0
x_12_14_2_1 0
x_12_14_2_2 0
x_12_15_0_0 0
x_12_15_0_1 0
x_12_15_0_2 0
x_12_15_1_0 0
x_12_15_1_1 0
x_12_15_1_2 0
x_12_15_2_0 0
x_12_15_2_1 0
x_12_15_2_2 0
x_13_14_0_0 0
x_13_14_0_1 0
x_13_14_0_2 0
x_13_14_1_0 0
x_13_14_1_1 0
x_13_14_1_2 0
x_13_14_2_0 0
x_13_14_2_1 0
x_13_14_2_2 0
x_13_15_0_0 0
x_13_15_0_1 0
x_13_15_0_2 0
x_13_15_1_0 0
x_13_15_1_1 0
x_13_15_1_2 0
x_13_15_2_0 0
x_13_15_2_1 0
x_13_15_2_2 0
x_14_15_0_0 0
x_14_15_0_1 0
x_14_15_0_2 0
x_14_15_1_0 0
x_14_15_1_1 0
x_14_15_1_2 0
x_14_15_2_0 0
x_14_15_2_1 0
x_14_15_2_2 0
